2000	50	0,6	0,15	4,65383240	39
2000	50	0,6	0,15	4,72348560	39
2000	50	0,6	0,15	4,70364500	39
2000	50	0,6	0,15	4,77296080	39
2000	50	0,6	0,15	4,83301540	39
2000	50	0,6	0,15	4,77195570	39
2000	50	0,6	0,15	5,06934100	39
2000	50	0,6	0,15	5,00414100	39
2000	50	0,6	0,15	5,89909270	39
2000	50	0,6	0,15	4,68553910	39
